(declare-const $I$0 Int)
(declare-const $L$sym_java_lang_System_currentTimeMillis__J Int)
(declare-const $I$1 Int)
(declare-const $Xsym_android_os_Build__java_lang_String_BOARD String)
(define-fun my_to_int ((x Real)) Int (if (>= x 0.0) (to_int x) (- (to_int (- x)))))
(define-fun l2i ((x Int)) Int x)
(define-fun l2f ((x Int)) Real (to_real x))
(define-fun l2d ((x Int)) Real (to_real x))
(assert (= $I$0 (l2i $L$sym_java_lang_System_currentTimeMillis__J)))
(assert (= $I$1 (+ $I$0 18)))
(assert (not (>= $I$1 35)))
(assert (not (Contains $Xsym_android_os_Build__java_lang_String_BOARD "gotcha")))
(check-sat)
(get-model)
